! wB97X def2-TZVPP TIGHTSCF RIJCOSX def2/J HIRSHFELD

# Aponta para a rede de solvente que extraímos do GROMACS
%pointcharges "solvente_medio.pc"

# Configuração do Optimal Tuning
%method
    RangeSepMu 0.250
end

# Coordenadas da quinona centralizada
* xyz 0 1
   15.72000 12.51000 14.48000
   15.20000 13.46000 14.44000
   15.88000 14.68000 14.12000
   13.91000 13.33000 14.64000
   17.10000 14.70000 13.89000
   15.00000 15.85000 13.98000
   13.61000 12.27000 14.82000
   12.94000 14.45000 14.57000
   15.43000 16.85000 13.73000
   13.54000 15.73000 14.32000
   11.74000 14.24000 14.78000
   12.85000 16.59000 14.17000
*
